NAME          BLANK   
ROWS
 N  OBJROW
 L  R0000000
COLUMNS
    C0000000  OBJROW     -799.         R0000000  301.        
    C0000001  OBJROW     -801.         R0000000  247.        
    C0000002  OBJROW     -952.         R0000000  339.        
    C0000003  OBJROW     -169.         R0000000  506.        
    C0000004  OBJROW     -160.         R0000000  408.        
    C0000005  OBJROW     -594.         R0000000  339.        
    C0000006  OBJROW     -849.         R0000000  768.        
    C0000007  OBJROW     -170.         R0000000  598.        
    C0000008  OBJROW     -826.         R0000000  974.        
    C0000009  OBJROW     -785.         R0000000  708.        
RHS
    RHS       R0000000  15344.      
BOUNDS
 BV BOUND     C0000000  1.          
 BV BOUND     C0000001  1.          
 BV BOUND     C0000002  1.          
 BV BOUND     C0000003  1.          
 BV BOUND     C0000004  1.          
 BV BOUND     C0000005  1.          
 BV BOUND     C0000006  1.          
 BV BOUND     C0000007  1.          
 BV BOUND     C0000008  1.          
 BV BOUND     C0000009  1.          
ENDATA
